54
1
19
1  0  0  0  0  0  0  0  0  0  0  0  0  0  0  0  0  0  0  0  0  0  0  0  0  0  0  0  0  0  0  0  0  0  0  0  0  0  0  0  0  0  0  0  0  0  0  0  0  0  0  0  0  0
0  1  1  1  0.666667
0  1  1  3  -0.166667
0  1  1  4  0.166667
0  1  1  5  -0.166667
0  1  1  7  0.166667
0  1  1  8  -0.166667
0  1  1  9  -0.166667
0  1  1  12  -0.0555556
0  1  1  13  -0.0555556
0  1  1  14  -0.0555556
0  1  1  16  -0.0555556
0  1  1  17  -0.0555556
0  1  1  18  -0.0555556
0  1  3  12  0.111111
0  1  3  13  0.111111
0  1  3  14  0.111111
0  1  3  16  0.111111
0  1  3  17  0.111111
0  1  3  18  0.111111
0  1  4  12  -0.111111
0  1  4  13  -0.111111
0  1  4  14  -0.111111
0  1  4  16  -0.111111
0  1  4  17  -0.111111
0  1  4  18  -0.111111
0  1  5  12  0.111111
0  1  5  13  0.111111
0  1  5  14  0.111111
0  1  5  16  0.111111
0  1  5  17  0.111111
0  1  5  18  0.111111
0  1  7  12  -0.111111
0  1  7  13  -0.111111
0  1  7  14  -0.111111
0  1  7  16  -0.111111
0  1  7  17  -0.111111
0  1  7  18  -0.111111
0  1  8  12  0.111111
0  1  8  13  0.111111
0  1  8  14  0.111111
0  1  8  16  0.111111
0  1  8  17  0.111111
0  1  8  18  0.111111
0  1  9  12  0.111111
0  1  9  13  0.111111
0  1  9  14  0.111111
0  1  9  16  0.111111
0  1  9  17  0.111111
0  1  9  18  0.111111
1  1  1  1  1
2  1  2  5  1
3  1  2  8  1
4  1  3  6  1
5  1  3  9  1
6  1  4  7  1
7  1  4  10  1
8  1  5  8  1
9  1  6  9  1
10  1  7  10  1
11  1  11  14  1
12  1  11  17  1
13  1  12  15  1
14  1  12  18  1
15  1  13  16  1
16  1  13  19  1
17  1  14  17  1
18  1  15  18  1
19  1  16  19  1
20  1  1  2  -1
20  1  2  2  2
21  1  2  5  -1
21  1  2  8  1
22  1  1  3  -1
22  1  3  3  2
23  1  2  5  -1
23  1  3  6  1
24  1  2  5  -1
24  1  3  9  1
25  1  1  4  -1
25  1  4  4  2
26  1  2  5  -1
26  1  4  7  1
27  1  2  5  -1
27  1  4  10  1
28  1  1  5  -1
28  1  5  5  2
29  1  2  5  -1
29  1  5  8  1
30  1  1  6  -1
30  1  6  6  2
31  1  2  5  -1
31  1  6  9  1
32  1  1  7  -1
32  1  7  7  2
33  1  2  5  -1
33  1  7  10  1
34  1  1  8  -1
34  1  8  8  2
35  1  1  9  -1
35  1  9  9  2
36  1  1  10  -1
36  1  10  10  2
37  1  1  11  -1
37  1  11  11  2
38  1  2  5  -1
38  1  11  14  1
39  1  2  5  -1
39  1  11  17  1
40  1  1  12  -1
40  1  12  12  2
41  1  2  5  -1
41  1  12  15  1
42  1  2  5  -1
42  1  12  18  1
43  1  1  13  -1
43  1  13  13  2
44  1  2  5  -1
44  1  13  16  1
45  1  2  5  -1
45  1  13  19  1
46  1  1  14  -1
46  1  14  14  2
47  1  2  5  -1
47  1  14  17  1
48  1  1  15  -1
48  1  15  15  2
49  1  2  5  -1
49  1  15  18  1
50  1  1  16  -1
50  1  16  16  2
51  1  2  5  -1
51  1  16  19  1
52  1  1  17  -1
52  1  17  17  2
53  1  1  18  -1
53  1  18  18  2
54  1  1  19  -1
54  1  19  19  2